1 -1 -2 0
1 -1 -3 0
1 -1 4 0
1 -2 5 0
1 6 -7 0
1 -6 -8 0
1 -8 9 0
1 -8 -1 0
1 10 11 0
1 -10 -1 0
1 4 12 0
1 -9 13 0
1 -9 14 0
1 9 15 0
1 9 -3 0
1 14 -6 0
1 -16 -17 0
1 -16 -3 0
1 16 18 0
1 7 19 0
1 -7 -20 0
1 -7 21 0
1 3 -14 0
1 15 22 0
1 -15 -9 0
1 -5 -23 0
1 -5 -15 0
1 -24 -18 0
1 25 21 0
1 -17 26 0
1 17 7 0
1 -17 -16 0
1 -18 -26 0
1 19 -26 0
1 19 -27 0
1 -19 28 0
1 19 16 0
1 29 30 0
1 31 -32 0
1 -33 34 0
1 -35 4 0
1 36 20 0
1 -36 -37 0
1 -20 -38 0
1 -39 -40 0
1 37 41 0
1 -42 -37 0
1 -43 -5 0
1 -44 20 0
1 44 -28 0
1 45 41 0
1 -45 36 0
1 45 -46 0
1 -45 -47 0
1 48 49 0
1 50 -51 0
1 52 -53 0
1 52 -54 0
1 55 -56 0
1 -57 58 0
1 -12 40 0
1 59 21 0
1 56 19 0
1 56 59 0
1 60 -23 0
1 60 61 0
1 62 -13 0
1 63 -64 0
1 -63 58 0
1 -23 -65 0
1 23 -66 0
1 23 67 0
1 23 -56 0
1 -68 69 0
1 68 61 0
1 70 71 0
1 -61 21 0
1 -72 68 0
1 69 -27 0
1 69 73 0
1 27 -19 0
1 74 -75 0
1 -41 45 0
1 -47 -76 0
1 -47 52 0
1 77 74 0
1 -77 78 0
1 79 80 0
1 -81 34 0
1 81 -47 0
1 34 47 0
1 -49 44 0
1 49 48 0
1 46 -82 0
1 -46 83 0
1 -46 48 0
1 80 84 0
1 -80 12 0
1 78 85 0
1 -78 57 0
1 -78 79 0
1 -86 64 0
1 82 -80 0
1 82 49 0
1 83 -80 0
1 65 87 0
1 -65 53 0
1 65 -58 0
1 65 -84 0
1 58 53 0
1 -58 -88 0
1 -58 12 0
1 -64 -63 0
1 89 -88 0
